157 159 156 155 153 154 160 161 113 112 114 116 115 110 111 172 170 171 169 168 162 163 167 166 164 165 203 204 202 201 200 199 198 205 206 207 208 209 210 211 212 213 214 215 217 216 246 247 245 244 243 242 241 248 249 250 251 252 254 253 255 256 257 300 258 259 260 261 262 263 264 266 265 299 298 297 296 295 294 293 270 267 271 268 269 272 273 274 275 292 291 290 289 288 276 277 278 279 282 281 280 287 286 285 284 283 334 335 336 337 338 339 333 332 331 330 340 341 343 344 345 346 364 363 362 347 348 349 350 351 352 415 416 414 413 417 419 420 421 422 423 427 426 424 425 382 386 383 384 410 418 411 412 356 355 353 354 357 358 359 361 360 401 402 403 400 399 398 397 407 408 406 405 404 409 385 387 388 389 390 392 391 393 394 395 396 371 372 370 369 368 367 365 342 366 329 328 327 326 325 324 323 322 321 320 319 317 318 305 306 304 307 303 301 302 508 507 506 516 515 514 513 527 512 511 510 509 237 240 239 238 236 235 234 233 232 223 224 222 221 220 218 219 193 194 195 196 197 184 185 183 182 181 180 179 178 177 176 175 174 173 108 109 107 542 541 543 544 547 546 545 478 477 479 480 476 475 482 481 483 485 484 536 537 539 538 540 187 188 186 227 189 190 192 191 226 225 228 229 230 231 533 534 535 487 486 488 489 532 531 530 529 528 490 491 492 493 524 525 526 523 521 522 517 520 518 519 497 499 500 501 498 502 503 504 505 308 309 310 311 312 313 316 314 315 374 373 375 376 377 378 379 380 381 447 448 449 446 442 443 444 445 431 428 429 430 432 433 434 435 436 437 438 454 439 440 441 450 451 453 452 461 462 463 460 459 458 457 456 455 3 2 1 4 0 5 6 572 573 571 467 466 465 464 496 468 469 470 495 494 471 472 473 474 570 569 568 567 566 565 563 564 548 549 562 560 561 29 28 27 26 25 24 21 20 19 18 17 8 7 9 10 11 16 15 14 13 12 23 22 31 30 32 34 33 36 37 38 35 40 41 39 42 43 44 45 46 47 48 49 50 51 52 54 53 55 56 58 57 82 83 84 85 86 87 90 92 91 555 554 553 552 556 557 558 559 550 551 101 100 99 102 103 104 105 106 118 121 120 119 95 96 98 97 94 93 89 88 78 62 79 80 81 59 60 61 63 64 76 77 75 74 73 72 65 66 67 68 69 70 71 123 122 117 124 125 126 127 128 129 130 131 132 133 134 135 136 137 138 139 140 141 151 150 149 152 148 147 146 142 143 144 145 158